
Gurobi 9.1.2 (linux64) logging started Wed Jun 30 11:28:26 2021


Gurobi 9.1.2 (linux64) logging started Wed Jun 30 11:28:29 2021

Gurobi Optimizer version 9.1.2 build v9.1.2rc0 (linux64)
Thread count: 40 physical cores, 40 logical processors, using up to 32 threads
Optimize a model with 64962 rows, 25295 columns and 186663 nonzeros
Model fingerprint: 0xf5d5ff16
Coefficient statistics:
  Matrix range     [3e-04, 1e+01]
  Objective range  [4e+01, 4e+05]
  Bounds range     [1e+03, 8e+06]
  RHS range        [6e+00, 1e+09]
Presolve removed 5139 rows and 18150 columns
Presolve time: 0.10s
Presolved: 20156 rows, 46812 columns, 149325 nonzeros
Ordering time: 2.28s

Barrier statistics:
 Dense cols : 2
 Free vars  : 2680
 AA' NZ     : 2.066e+05
 Factor NZ  : 1.475e+06 (roughly 40 MBytes of memory)
 Factor Ops : 2.105e+08 (less than 1 second per iteration)
 Threads    : 32

                  Objective                Residual
Iter       Primal          Dual         Primal    Dual     Compl     Time
   0  -1.02275627e+16  6.85030849e+13  3.43e+07 7.13e+07  2.45e+13     4s
   1  -3.18389821e+15  3.35661269e+15  7.64e+06 8.50e+07  5.76e+12     5s
   2  -1.51565685e+15  4.72114667e+15  2.83e+06 2.69e+07  2.12e+12     6s
   3  -6.74303537e+14  4.80365330e+15  1.21e+06 7.85e+06  8.69e+11     7s
   4  -2.83197301e+14  4.03364553e+15  3.33e+05 2.89e+06  2.88e+11     8s
   5  -1.58531013e+14  2.52943072e+15  1.06e+05 9.02e+05  1.03e+11     9s
   6  -8.99713034e+13  1.18765984e+15  2.73e+04 2.54e+05  3.26e+10    10s
   7  -4.16963078e+13  4.85819659e+14  6.23e+03 7.55e+04  1.09e+10    10s
   8  -7.19877108e+12  1.03974659e+14  3.24e+02 1.32e+04  2.05e+09    11s
   9  -2.48618469e+12  2.92689030e+13  4.85e+01 3.34e+03  5.68e+08    12s
  10  -1.26617625e+12  9.92515647e+12  2.42e+01 9.68e+02  1.96e+08    14s
  11  -1.23906522e+12  7.29109245e+12  2.36e+01 7.20e+02  1.49e+08    15s
  12  -4.77218352e+11  2.96148044e+12  8.15e+00 2.73e+02  5.89e+07    16s
  13  -2.32717471e+11  1.33795151e+12  4.01e+00 1.15e+02  2.67e+07    17s
  14  -1.28562294e+11  7.90257311e+11  2.38e+00 6.48e+01  1.55e+07    18s
  15  -2.04485366e+10  2.99285784e+11  7.22e-01 2.03e+01  5.38e+06    18s
  16   2.24291687e+10  1.79039067e+11  2.96e-01 9.96e+00  2.63e+06    20s
  17   3.39500203e+10  1.53028315e+11  2.07e-01 7.77e+00  2.00e+06    21s
  18   4.61970779e+10  1.03600791e+11  1.24e-01 3.28e+00  9.62e+05    22s
  19   5.22174852e+10  8.68937928e+10  8.44e-02 1.78e+00  5.81e+05    23s
  20   5.60494699e+10  8.07417686e+10  5.87e-02 1.26e+00  4.14e+05    24s
  21   5.83725917e+10  7.55857956e+10  4.21e-02 8.47e-01  2.88e+05    25s
  22   6.04137699e+10  7.18060049e+10  2.76e-02 5.47e-01  1.91e+05    26s
  23   6.09510064e+10  7.04104497e+10  2.39e-02 4.40e-01  1.59e+05    27s
  24   6.16459912e+10  6.94246458e+10  1.88e-02 3.64e-01  1.30e+05    28s
  25   6.22577804e+10  6.80203425e+10  1.44e-02 2.73e-01  9.66e+04    29s
  26   6.29720270e+10  6.67004618e+10  9.57e-03 2.30e-01  6.25e+04    30s
  27   6.31893714e+10  6.63191777e+10  8.12e-03 2.09e-01  5.25e+04    31s
  28   6.36051500e+10  6.58041923e+10  5.28e-03 1.71e-01  3.69e+04    32s
  29   6.38721798e+10  6.54217164e+10  3.44e-03 1.42e-01  2.60e+04    33s
  30   6.40464593e+10  6.51792056e+10  2.24e-03 1.15e-01  1.90e+04    34s
  31   6.41978172e+10  6.48406702e+10  1.22e-03 8.55e-02  1.08e+04    35s
  32   6.42731425e+10  6.46709958e+10  7.05e-04 7.31e-02  6.69e+03    36s
  33   6.42890319e+10  6.46342246e+10  6.04e-04 7.13e-02  5.81e+03    37s
  34   6.43173776e+10  6.45901589e+10  4.24e-04 6.88e-02  4.59e+03    38s
  35   6.43337411e+10  6.45175578e+10  3.20e-04 6.59e-02  3.10e+03    39s
  36   6.43456064e+10  6.44822878e+10  2.40e-04 6.42e-02  2.31e+03    40s
  37   6.43513744e+10  6.44555076e+10  2.05e-04 6.50e-02  1.76e+03    41s
  38   6.43594972e+10  6.44421432e+10  1.53e-04 6.50e-02  1.40e+03    42s
  39   6.43648357e+10  6.44292810e+10  1.18e-04 6.70e-02  1.09e+03    44s
  40   6.43710195e+10  6.44171030e+10  7.76e-05 6.87e-02  7.85e+02    46s
  41   6.43748903e+10  6.44073666e+10  5.29e-05 6.91e-02  5.56e+02    49s
  42   6.43775101e+10  6.43954823e+10  3.56e-05 6.80e-02  3.11e+02    51s
  43   6.43802384e+10  6.43931648e+10  1.87e-05 6.81e-02  2.27e+02    53s
  44   6.43809066e+10  6.43887236e+10  1.41e-05 6.28e-02  1.40e+02    55s
  45   6.43817497e+10  6.43861030e+10  1.39e-04 3.32e-02  7.90e+01    58s
  46   6.43826482e+10  6.43849578e+10  5.01e-05 4.24e-02  4.58e+01    62s
  47   6.43830182e+10  6.43840459e+10  3.19e-05 3.68e-02  2.38e+01    66s
  48   6.43831751e+10  6.43828749e+10  1.73e-04 3.51e-02  1.38e+00    69s
  49   6.43831894e+10  6.43828669e+10  2.77e-02 3.28e-02  8.64e-01    71s
  50   6.43831941e+10  6.43828592e+10  2.53e-02 3.61e-02  6.26e-01    74s
  51   6.43831941e+10  6.43828592e+10  2.53e-02 3.61e-02  6.26e-01    76s
  52   6.43831941e+10  6.43828592e+10  2.53e-02 3.61e-02  6.26e-01    77s
  53   6.43831941e+10  6.43828592e+10  2.53e-02 3.61e-02  6.25e-01    79s
  54   6.43831941e+10  6.43828592e+10  2.53e-02 3.61e-02  6.25e-01    81s
  55   6.43831941e+10  6.43828592e+10  2.53e-02 3.61e-02  6.25e-01    83s
  56   6.43831941e+10  6.43828592e+10  2.53e-02 3.61e-02  6.25e-01    85s
  57   6.43831941e+10  6.43828592e+10  2.53e-02 3.61e-02  6.25e-01    86s
  58   6.43831941e+10  6.43828592e+10  2.53e-02 3.61e-02  6.25e-01    88s
  59   6.43831941e+10  6.43828592e+10  2.53e-02 3.61e-02  6.25e-01    89s
  60   6.43831941e+10  6.43828592e+10  2.53e-02 3.61e-02  6.25e-01    91s

Barrier performed 60 iterations in 91.21 seconds
Sub-optimal termination - objective 6.43831751e+10


User-callback calls 2073, time in user-callback 0.01 sec
